Academic license - for non-commercial use only
Gurobi Optimizer version 9.0.3 build v9.0.3rc0 (mac64)
Optimize a model with 175196 rows, 160320 columns and 920780 nonzeros
Model fingerprint: 0x0c0afe9a
Variable types: 0 continuous, 160320 integer (160320 binary)
Coefficient statistics:
  Matrix range     [1e+00, 1e+00]
  Objective range  [1e+01, 1e+05]
  Bounds range     [1e+00, 1e+00]
  RHS range        [1e+00, 1e+03]
Presolve removed 20 rows and 20 columns
Presolve time: 2.28s
Presolved: 175176 rows, 160300 columns, 920740 nonzeros
Variable types: 0 continuous, 160300 integer (160300 binary)
Found heuristic solution: objective 615820.00000

Concurrent LP optimizer: dual simplex and barrier
Showing barrier log only...

Root barrier log...

Ordering time: 0.05s

Barrier statistics:
 Dense cols : 160
 AA' NZ     : 8.027e+05
 Factor NZ  : 3.695e+06 (roughly 170 MBytes of memory)
 Factor Ops : 1.996e+08 (less than 1 second per iteration)
 Threads    : 3

                  Objective                Residual
Iter       Primal          Dual         Primal    Dual     Compl     Time
   0   8.10077437e+07 -1.31522224e+05  9.18e+01 0.00e+00  2.22e+03     6s
   1   8.95497487e+05 -2.31971622e+07  5.22e-01 6.09e+03  6.09e+01     6s
   2   7.60019670e+05 -3.98289513e+06  1.66e-01 9.21e+02  1.04e+01     6s
   3   6.97196052e+05 -4.94490340e+05  5.06e-02 1.96e+02  2.47e+00     6s
   4   5.91669438e+05  3.93243398e+05  2.53e-03 1.81e+01  4.04e-01     7s
   5   5.50442401e+05  4.60603345e+05  9.57e-04 7.11e+00  1.83e-01     7s
   6   5.35734937e+05  4.81983291e+05  5.67e-04 4.18e+00  1.09e-01     7s
   7   5.28151672e+05  4.89878556e+05  3.82e-04 3.15e+00  7.78e-02     7s
   8   5.25288166e+05  4.95663276e+05  3.14e-04 2.31e+00  6.02e-02     7s
   9   5.21537114e+05  4.98741692e+05  2.29e-04 1.84e+00  4.64e-02     7s
  10   5.19710542e+05  5.01247088e+05  1.88e-04 1.46e+00  3.75e-02     8s
  11   5.17845087e+05  5.03703709e+05  1.49e-04 1.08e+00  2.87e-02     8s
  12   5.16036775e+05  5.05689119e+05  1.12e-04 7.85e-01  2.10e-02     8s
  13   5.15122799e+05  5.06668108e+05  9.33e-05 6.40e-01  1.72e-02     8s
  14   5.14191428e+05  5.07571559e+05  7.54e-05 5.01e-01  1.34e-02     8s
  15   5.13463424e+05  5.08339096e+05  6.08e-05 3.79e-01  1.04e-02     9s
  16   5.13003905e+05  5.08620066e+05  5.18e-05 3.33e-01  8.90e-03     9s
  17   5.12659023e+05  5.09107784e+05  4.52e-05 2.52e-01  7.20e-03     9s
  18   5.12364330e+05  5.09342772e+05  3.94e-05 2.10e-01  6.13e-03     9s
  19   5.12092016e+05  5.09470040e+05  3.38e-05 1.88e-01  5.32e-03    10s
  20   5.11735787e+05  5.09564127e+05  2.63e-05 1.71e-01  4.41e-03    10s
  21   5.11595884e+05  5.09771668e+05  2.35e-05 1.34e-01  3.70e-03    10s
  22   5.11457322e+05  5.09925533e+05  2.06e-05 1.08e-01  3.11e-03    10s
  23   5.11333851e+05  5.09994121e+05  1.79e-05 9.42e-02  2.72e-03    10s
  24   5.11230564e+05  5.10099964e+05  1.59e-05 7.40e-02  2.29e-03    10s
  25   5.11088976e+05  5.10183381e+05  1.30e-05 5.76e-02  1.83e-03    11s
  26   5.10986506e+05  5.10209588e+05  1.09e-05 5.24e-02  1.57e-03    11s
  27   5.10930661e+05  5.10270223e+05  9.70e-06 4.03e-02  1.34e-03    11s
  28   5.10861683e+05  5.10294605e+05  8.22e-06 3.54e-02  1.15e-03    11s
  29   5.10806161e+05  5.10316927e+05  7.05e-06 3.09e-02  9.91e-04    11s
  30   5.10765842e+05  5.10331716e+05  6.21e-06 2.79e-02  8.80e-04    12s
  31   5.10726794e+05  5.10353436e+05  5.39e-06 2.36e-02  7.56e-04    12s
  32   5.10690147e+05  5.10367148e+05  4.67e-06 2.07e-02  6.54e-04    12s
  33   5.10661266e+05  5.10384737e+05  4.07e-06 1.72e-02  5.60e-04    12s
  34   5.10637219e+05  5.10398864e+05  3.55e-06 1.45e-02  4.83e-04    12s
  35   5.10607363e+05  5.10406631e+05  2.92e-06 1.29e-02  4.07e-04    13s
  36   5.10597102e+05  5.10414947e+05  2.71e-06 1.13e-02  3.69e-04    13s
  37   5.10584253e+05  5.10421997e+05  2.43e-06 9.90e-03  3.29e-04    13s
  38   5.10577908e+05  5.10427087e+05  2.29e-06 8.94e-03  3.05e-04    13s
  39   5.10570254e+05  5.10428859e+05  2.12e-06 8.59e-03  2.86e-04    14s
  40   5.10552216e+05  5.10431622e+05  1.74e-06 8.03e-03  2.44e-04    14s
  41   5.10545574e+05  5.10439187e+05  1.60e-06 6.54e-03  2.15e-04    14s
  42   5.10540524e+05  5.10444408e+05  1.49e-06 5.46e-03  1.95e-04    14s
  43   5.10529507e+05  5.10446385e+05  1.26e-06 5.07e-03  1.68e-04    14s
  44   5.10523361e+05  5.10449307e+05  1.13e-06 4.51e-03  1.50e-04    15s
  45   5.10517747e+05  5.10450926e+05  1.01e-06 4.22e-03  1.35e-04    15s
  46   5.10513448e+05  5.10453941e+05  9.16e-07 3.69e-03  1.21e-04    15s
  47   5.10510709e+05  5.10455020e+05  8.57e-07 3.48e-03  1.13e-04    15s
  48   5.10508803e+05  5.10457454e+05  8.12e-07 3.01e-03  1.04e-04    15s
  49   5.10504080e+05  5.10458853e+05  7.08e-07 2.75e-03  9.16e-05    16s
  50   5.10500549e+05  5.10461557e+05  6.25e-07 2.25e-03  7.89e-05    16s
  51   5.10497200e+05  5.10462585e+05  5.49e-07 2.06e-03  7.01e-05    16s
  52   5.10492520e+05  5.10464052e+05  4.40e-07 1.78e-03  5.77e-05    16s
  53   5.10489662e+05  5.10465241e+05  3.74e-07 1.54e-03  4.95e-05    16s
  54   5.10489073e+05  5.10465386e+05  3.59e-07 1.51e-03  4.80e-05    16s
  55   5.10486699e+05  5.10466389e+05  3.03e-07 1.32e-03  4.12e-05    17s
  56   5.10485979e+05  5.10466925e+05  2.87e-07 1.22e-03  3.86e-05    17s
  57   5.10484301e+05  5.10467843e+05  2.50e-07 1.05e-03  3.33e-05    17s
  58   5.10482273e+05  5.10468640e+05  2.04e-07 8.99e-04  2.76e-05    17s
  59   5.10481002e+05  5.10469177e+05  1.74e-07 8.01e-04  2.40e-05    17s
  60   5.10480162e+05  5.10469919e+05  1.55e-07 6.44e-04  2.08e-05    18s
  61   5.10479326e+05  5.10470302e+05  1.37e-07 5.74e-04  1.83e-05    18s
  62   5.10478998e+05  5.10470454e+05  1.29e-07 5.46e-04  1.73e-05    18s
  63   5.10478506e+05  5.10470715e+05  1.18e-07 4.95e-04  1.58e-05    18s
  64   5.10478252e+05  5.10470778e+05  1.12e-07 4.83e-04  1.51e-05    18s
  65   5.10477736e+05  5.10471240e+05  1.01e-07 3.96e-04  1.32e-05    19s
  66   5.10477373e+05  5.10471740e+05  9.30e-08 2.97e-04  1.14e-05    19s
  67   5.10476715e+05  5.10471797e+05  7.84e-08 2.86e-04  9.96e-06    19s
  68   5.10476652e+05  5.10471866e+05  7.71e-08 2.72e-04  9.69e-06    19s
  69   5.10476596e+05  5.10472017e+05  7.58e-08 2.43e-04  9.26e-06    19s
  70   5.10476259e+05  5.10472046e+05  6.80e-08 2.37e-04  8.53e-06    19s
  71   5.10475889e+05  5.10472230e+05  5.97e-08 2.01e-04  7.40e-06    20s
  72   5.10475796e+05  5.10472313e+05  5.76e-08 1.86e-04  7.05e-06    20s
  73   5.10475753e+05  5.10472349e+05  5.66e-08 1.79e-04  6.88e-06    20s
  74   5.10475707e+05  5.10472435e+05  5.56e-08 1.63e-04  6.62e-06    20s
  75   5.10475496e+05  5.10472531e+05  5.08e-08 1.46e-04  5.99e-06    20s
  76   5.10475178e+05  5.10472645e+05  4.37e-08 1.19e-04  5.12e-06    21s
  77   5.10475137e+05  5.10472719e+05  4.27e-08 1.05e-04  4.88e-06    21s
  78   5.10475043e+05  5.10472755e+05  4.05e-08 9.83e-05  4.62e-06    21s
  79   5.10474438e+05  5.10472832e+05  2.65e-08 8.30e-05  3.25e-06    21s
  80   5.10474313e+05  5.10472927e+05  2.37e-08 6.53e-05  2.80e-06    21s
  81   5.10474173e+05  5.10473011e+05  2.07e-08 4.84e-05  2.35e-06    21s
  82   5.10474088e+05  5.10473055e+05  1.88e-08 4.02e-05  2.08e-06    22s
  83   5.10474056e+05  5.10473087e+05  1.81e-08 3.38e-05  1.95e-06    22s
  84   5.10473934e+05  5.10473129e+05  1.53e-08 2.57e-05  1.62e-06    22s
  85   5.10473805e+05  5.10473146e+05  1.26e-08 2.22e-05  1.33e-06    22s
  86   5.10473777e+05  5.10473158e+05  1.19e-08 2.02e-05  1.25e-06    22s
  87   5.10473611e+05  5.10473180e+05  8.01e-09 1.59e-05  8.70e-07    22s
  88   5.10473444e+05  5.10473219e+05  4.06e-09 8.10e-06  4.52e-07    23s
  89   5.10473409e+05  5.10473246e+05  3.24e-09 2.99e-06  3.29e-07    23s
  90   5.10473287e+05  5.10473250e+05  5.42e-10 2.38e-06  7.55e-08    23s
  91   5.10473264e+05  5.10473261e+05  5.02e-11 1.35e-07  5.88e-09    23s

Barrier solved model in 91 iterations and 23.14 seconds
Optimal objective 5.10473264e+05


Root crossover log...

   60328 DPushes remaining with DInf 0.0000000e+00                23s
     458 DPushes remaining with DInf 0.0000000e+00                25s
       0 DPushes remaining with DInf 0.0000000e+00                25s

    1317 PPushes remaining with PInf 3.9217530e-05                25s
       0 PPushes remaining with PInf 0.0000000e+00                25s

  Push phase complete: Pinf 0.0000000e+00, Dinf 1.1113757e+01     26s


Root simplex log...

Iteration    Objective       Primal Inf.    Dual Inf.      Time
   12951    5.1047326e+05   0.000000e+00   1.111376e+01     26s
   12966    5.1047326e+05   0.000000e+00   0.000000e+00     26s

Solved with barrier

Root relaxation: objective 5.104733e+05, 12966 iterations, 20.49 seconds

    Nodes    |    Current Node    |     Objective Bounds      |     Work
 Expl Unexpl |  Obj  Depth IntInf | Incumbent    BestBd   Gap | It/Node Time

     0     0 510473.262    0 17742 615820.000 510473.262  17.1%     -   30s
H    0     0                    520239.00000 510473.262  1.88%     -   33s
H    0     0                    519075.00000 510473.262  1.66%     -   38s
     0     0 510477.828    0 19396 519075.000 510477.828  1.66%     -   50s
     0     0 510479.297    0 17646 519075.000 510479.297  1.66%     -   87s
     0     0 510479.315    0 17647 519075.000 510479.315  1.66%     -   90s
     0     0 510506.971    0 17750 519075.000 510506.971  1.65%     -  106s
     0     0 510508.049    0 17750 519075.000 510508.049  1.65%     -  113s
     0     0 510508.655    0 17750 519075.000 510508.655  1.65%     -  116s
     0     0 510508.960    0 17752 519075.000 510508.960  1.65%     -  119s
     0     0 510509.048    0 17750 519075.000 510509.048  1.65%     -  120s
     0     0 510509.144    0 17750 519075.000 510509.144  1.65%     -  123s
     0     0 510535.255    0 18960 519075.000 510535.255  1.65%     -  146s
     0     0 510535.817    0 20667 519075.000 510535.817  1.65%     -  152s
     0     0 510535.847    0 20668 519075.000 510535.847  1.65%     -  152s
     0     0 510552.912    0 20208 519075.000 510552.912  1.64%     -  183s
     0     0 510554.899    0 20174 519075.000 510554.899  1.64%     -  186s
     0     0 510555.044    0 20176 519075.000 510555.044  1.64%     -  187s
     0     0 510567.319    0 21461 519075.000 510567.319  1.64%     -  214s
     0     0 510567.592    0 21433 519075.000 510567.592  1.64%     -  216s
     0     0 510567.592    0 21434 519075.000 510567.592  1.64%     -  216s
     0     0 510567.592    0 21316 519075.000 510567.592  1.64%     -  223s
H    0     0                    518728.00000 510567.592  1.57%     -  262s
     0     2 510568.575    0 21316 518728.000 510568.575  1.57%     -  295s

Cutting planes:
  Gomory: 5
  Zero half: 94

Explored 1 nodes (28943 simplex iterations) in 300.06 seconds
Thread count was 8 (of 8 available processors)

Solution count 4: 518728 519075 520239 615820 

Time limit reached
Best objective 5.187280000000e+05, best bound 5.105690000000e+05, gap 1.5729%

User-callback calls 29136, time in user-callback 0.23 sec
Solution written to /Users/mdeboute/Desktop/Etudes/Master/M2/S9/GOPP/Projet/multi-period-flp/solution/instSingle_I20_J1000_T8_1_result.txt
